cost: 1133.33
Route 1:           0    1   70   30   20   66   65   71   35   34   78   79    3   77   76   28    0
Route 2:           0   18   83   45    8   46   36   49   64   63   90   32   51    9   81   33   50    0
Route 3:           0   53   58    2   57   42   87   97   13    0
Route 4:           0   26    4   56   23   67   39   25   55   54   24   29   68   80   12    0
Route 5:           0   40   21   73   72   74   75   22   41   15   43   14   38   44   91  100   98   37   92   95   94    0
Route 6:           0   52    7   82   48   47   19   11   62   10   88   31   69   27    0
Route 7:           0   89   60    5   84   17   86   16   61   85   93   59   99   96    6    0
